NAME : ct_4_n_3_k10_t_99
COMMENT : (ct_4_n_3_k10_t_99, Min no of trucks: 3, Optimal value: 503.3677073948734, Split: Yes)
TYPE : SDVRP
DIMENSION : 5
EDGE_WEIGHT_TYPE : EUC_2D
CAPACITY : 10
NODE_COORD_SECTION
1 100 100
2 61 163
3 112 45
4 98 151
5 177 158
DEMAND_SECTION
1 0
2 8.1
3 10.0
4 6.1
5 5.4
DEPOT_SECTION
 1
EOF